networks/zoo_112_616/zoo_112_616-lower.txt
Number of groups: 54
Flow 1: {1 31 0} {31 3 0} {3 59 0} 
Flow 2: {51 5 0} {5 61 0} 
Flow 2: {31 13 0} {13 51 0} Flow 3: {42 9 0} {9 65 0} 
Flow 3: {13 42 0} Flow 4: {13 69 0} 
Flow 5: {31 14 0} {14 70 0} 
Flow 6: {13 45 0} {45 17 0} {17 73 0} 
Flow 7: {9 20 0} {20 76 0} 
Flow 8: {31 30 0} {30 86 0} 
Flow 9: {31 87 0} 
Flow 10: {31 33 0} {33 89 0} 
Flow 11: {33 34 0} {34 90 0} 
Flow 12: {51 107 0} 
Flow 13: {31 52 0} {52 108 0} 
Flow 14: {31 1 0} {1 57 0} 
Flow 14: {2 5 0} {5 51 0} {51 13 0} {13 31 0} Flow 17: {51 6 0} {6 62 0} 
Flow 18: {5 9 0} Flow 20: {51 33 0} {33 14 0} Flow 21: {51 17 0} Flow 23: {13 30 0} Flow 28: {33 52 0} Flow 29: {3 31 0} Flow 37: {33 23 0} {23 79 0} 
Flow 44: {4 33 0} {33 31 0} Flow 45: {33 51 0} Flow 46: {51 9 0} Flow 57: {51 7 0} {7 63 0} 
Flow 64: {13 26 0} {26 82 0} 
Flow 69: {33 35 0} {35 91 0} 
Flow 70: {9 42 0} {42 98 0} 
Flow 71: {31 48 0} {48 104 0} 
Flow 74: {51 55 0} {55 111 0} 
Flow 75: {6 51 0} Flow 80: {20 19 0} {19 11 0} {11 67 0} 
Flow 84: {20 18 0} {18 74 0} 
Flow 93: {7 41 0} {41 97 0} 
Flow 95: {45 101 0} 
Flow 99: {13 53 0} {53 109 0} 
Flow 101: {41 9 0} Flow 102: {7 51 0} Flow 105: {8 5 0} Flow 109: {9 51 0} Flow 111: {9 5 0} Flow 113: {9 41 0} {41 7 0} Flow 117: {30 15 0} {15 71 0} 
Flow 122: {51 25 0} {25 81 0} 
Flow 137: {12 26 0} {26 13 0} Flow 142: {33 4 0} {4 60 0} 
Flow 146: {5 8 0} {8 64 0} 
Flow 148: {9 10 0} {10 66 0} 
Flow 150: {26 12 0} {12 68 0} 
Flow 153: {30 16 0} {16 72 0} 
Flow 157: {20 21 0} {21 77 0} 
Flow 158: {20 22 0} {22 78 0} 
Flow 160: {33 24 0} {24 80 0} 
Flow 163: {30 28 0} {28 84 0} 
Flow 164: {30 29 0} {29 85 0} 
Flow 167: {14 32 0} {32 88 0} 
Flow 171: {17 37 0} {37 93 0} 
Flow 172: {17 39 0} {39 95 0} 
Flow 173: {51 40 0} {40 96 0} 
Flow 176: {45 44 0} {44 100 0} 
Flow 178: {45 46 0} {46 102 0} 
Flow 179: {33 47 0} {47 103 0} 
Flow 181: {14 49 0} {49 105 0} 
Flow 182: {33 36 0} {36 50 0} {50 106 0} 
Flow 187: {42 56 0} {56 112 0} 
Flow 188: {14 31 0} Flow 190: {14 33 0} Flow 203: {16 52 0} {52 31 0} Flow 205: {52 33 0} Flow 208: {16 30 0} {30 13 0} Flow 215: {52 34 0} Flow 218: {17 51 0} Flow 226: {17 20 0} Flow 236: {17 45 0} Flow 242: {18 20 0} {20 9 0} Flow 253: {20 17 0} Flow 264: {21 20 0} Flow 267: {22 20 0} Flow 270: {23 33 0} Flow 285: {24 33 0} Flow 302: {25 51 0} Flow 306: {27 26 0} Flow 310: {30 31 0} Flow 346: {19 75 0} 
Flow 361: {36 92 0} 
Flow 363: {45 38 0} {38 94 0} 
Flow 368: {45 43 0} {43 99 0} 
Flow 379: {14 54 0} {54 110 0} 
Flow 382: {32 14 0} Flow 404: {52 16 0} Flow 430: {35 55 0} Flow 431: {34 33 0} Flow 446: {34 52 0} Flow 448: {35 33 0} Flow 459: {36 33 0} Flow 474: {37 17 0} Flow 484: {38 45 0} {45 13 0} Flow 486: {39 17 0} Flow 490: {40 51 0} Flow 492: {40 9 0} Flow 514: {42 13 0} Flow 519: {43 45 0} Flow 523: {44 45 0} Flow 548: {46 45 0} Flow 552: {48 31 0} Flow 568: {50 36 0} Flow 594: {53 13 0} Flow 595: {54 14 0} Flow 599: {55 26 0} Flow 601: {55 51 0} Flow 605: {55 35 0} Time taken running everything: 0 seconds
