networks/zoo_112_616/zoo_112_616-lower.sol
<?xml version = "1.0" encoding="UTF-8" standalone="yes"?>
<CPLEXSolution version="1.2">
 <header
   problemName="networks/zoo_112_616/zoo_112_616-lower.lp"
   solutionName="incumbent"
   solutionIndex="-1"
   objectiveValue="54"
   solutionTypeValue="3"
   solutionTypeString="primal"
   solutionStatusValue="101"
   solutionStatusString="integer optimal solution"
   solutionMethodString="mip"
   primalFeasible="1"
   dualFeasible="1"
   MIPNodes="0"
   MIPIterations="0"
   writeLevel="3"/>
 <quality
   epInt="1.0000000000000001e-05"
   epRHS="9.9999999999999995e-07"
   maxIntInfeas="0"
   maxPrimalInfeas="0"
   maxX="1"
   maxSlack="1"/>
 <variables>
  <variable name="Y(1,3)" index="2" value="1"/>
  <variable name="Y(2,5)" index="114" value="1"/>
  <variable name="Y(3,9)" index="228" value="1"/>
  <variable name="Y(4,13)" index="342" value="1"/>
  <variable name="Y(5,14)" index="453" value="1"/>
  <variable name="Y(6,17)" index="566" value="1"/>
  <variable name="Y(7,20)" index="679" value="1"/>
  <variable name="Y(8,30)" index="799" value="1"/>
  <variable name="Y(9,31)" index="910" value="1"/>
  <variable name="Y(10,33)" index="1022" value="1"/>
  <variable name="Y(11,34)" index="1133" value="1"/>
  <variable name="Y(12,51)" index="1260" value="1"/>
  <variable name="Y(13,52)" index="1371" value="1"/>
  <variable name="Y(14,1)" index="1430" value="1"/>
  <variable name="Y(17,6)" index="1765" value="1"/>
  <variable name="Y(37,23)" index="3982" value="1"/>
  <variable name="Y(57,7)" index="6166" value="1"/>
  <variable name="Y(64,26)" index="6955" value="1"/>
  <variable name="Y(69,35)" index="7514" value="1"/>
  <variable name="Y(70,42)" index="7631" value="1"/>
  <variable name="Y(71,48)" index="7747" value="1"/>
  <variable name="Y(74,55)" index="8084" value="1"/>
  <variable name="Y(80,11)" index="8700" value="1"/>
  <variable name="Y(84,18)" index="9147" value="1"/>
  <variable name="Y(93,41)" index="10160" value="1"/>
  <variable name="Y(95,45)" index="10384" value="1"/>
  <variable name="Y(99,53)" index="10832" value="1"/>
  <variable name="Y(117,15)" index="12774" value="1"/>
  <variable name="Y(122,25)" index="13334" value="1"/>
  <variable name="Y(142,4)" index="15513" value="1"/>
  <variable name="Y(146,8)" index="15957" value="1"/>
  <variable name="Y(148,10)" index="16179" value="1"/>
  <variable name="Y(150,12)" index="16401" value="1"/>
  <variable name="Y(153,16)" index="16735" value="1"/>
  <variable name="Y(157,21)" index="17180" value="1"/>
  <variable name="Y(158,22)" index="17291" value="1"/>
  <variable name="Y(160,24)" index="17513" value="1"/>
  <variable name="Y(163,28)" index="17847" value="1"/>
  <variable name="Y(164,29)" index="17958" value="1"/>
  <variable name="Y(167,32)" index="18291" value="1"/>
  <variable name="Y(171,37)" index="18736" value="1"/>
  <variable name="Y(172,39)" index="18848" value="1"/>
  <variable name="Y(173,40)" index="18959" value="1"/>
  <variable name="Y(176,44)" index="19293" value="1"/>
  <variable name="Y(178,46)" index="19515" value="1"/>
  <variable name="Y(179,47)" index="19626" value="1"/>
  <variable name="Y(181,49)" index="19848" value="1"/>
  <variable name="Y(182,50)" index="19959" value="1"/>
  <variable name="Y(187,56)" index="20515" value="1"/>
  <variable name="Y(346,19)" index="37968" value="1"/>
  <variable name="Y(361,36)" index="39635" value="1"/>
  <variable name="Y(363,38)" index="39857" value="1"/>
  <variable name="Y(368,43)" index="40412" value="1"/>
  <variable name="Y(379,54)" index="41633" value="1"/>
  <variable name="X(1,31,1)" index="67760" value="1"/>
  <variable name="X(1,57,14)" index="68389" value="1"/>
  <variable name="X(2,5,14)" index="69005" value="1"/>
  <variable name="X(3,31,29)" index="69636" value="1"/>
  <variable name="X(3,59,1)" index="70224" value="1"/>
  <variable name="X(4,33,44)" index="70883" value="1"/>
  <variable name="X(4,60,142)" index="71597" value="1"/>
  <variable name="X(5,8,146)" index="72217" value="1"/>
  <variable name="X(5,9,18)" index="72705" value="1"/>
  <variable name="X(5,51,14)" index="73317" value="1"/>
  <variable name="X(5,61,2)" index="73921" value="1"/>
  <variable name="X(6,51,75)" index="74610" value="1"/>
  <variable name="X(6,62,17)" index="75168" value="1"/>
  <variable name="X(7,41,93)" index="75860" value="1"/>
  <variable name="X(7,51,102)" index="76485" value="1"/>
  <variable name="X(7,63,57)" index="77056" value="1"/>
  <variable name="X(8,5,105)" index="77720" value="1"/>
  <variable name="X(8,64,146)" index="78377" value="1"/>
  <variable name="X(9,5,111)" index="78958" value="1"/>
  <variable name="X(9,10,148)" index="79611" value="1"/>
  <variable name="X(9,20,7)" index="80086" value="1"/>
  <variable name="X(9,41,113)" index="80808" value="1"/>
  <variable name="X(9,42,70)" index="81381" value="1"/>
  <variable name="X(9,51,109)" index="82036" value="1"/>
  <variable name="X(9,65,3)" index="82546" value="1"/>
  <variable name="X(10,66,148)" index="83307" value="1"/>
  <variable name="X(11,67,80)" index="83855" value="1"/>
  <variable name="X(12,26,137)" index="84528" value="1"/>
  <variable name="X(12,68,150)" index="85157" value="1"/>
  <variable name="X(13,26,64)" index="85687" value="1"/>
  <variable name="X(13,30,23)" index="86262" value="1"/>
  <variable name="X(13,31,14)" index="86869" value="1"/>
  <variable name="X(13,42,3)" index="87474" value="1"/>
  <variable name="X(13,45,6)" index="88093" value="1"/>
  <variable name="X(13,51,2)" index="88705" value="1"/>
  <variable name="X(13,53,99)" index="89418" value="1"/>
  <variable name="X(13,69,4)" index="89939" value="1"/>
  <variable name="X(14,31,188)" index="90739" value="1"/>
  <variable name="X(14,32,167)" index="91334" value="1"/>
  <variable name="X(14,33,190)" index="91973" value="1"/>
  <variable name="X(14,49,181)" index="92580" value="1"/>
  <variable name="X(14,54,379)" index="93394" value="1"/>
  <variable name="X(14,70,5)" index="93636" value="1"/>
  <variable name="X(15,71,117)" index="94364" value="1"/>
  <variable name="X(16,30,208)" index="95071" value="1"/>
  <variable name="X(16,52,203)" index="95682" value="1"/>
  <variable name="X(16,72,153)" index="96248" value="1"/>
  <variable name="X(17,20,226)" index="96937" value="1"/>
  <variable name="X(17,37,171)" index="97498" value="1"/>
  <variable name="X(17,39,172)" index="98115" value="1"/>
  <variable name="X(17,45,236)" index="98795" value="1"/>
  <variable name="X(17,51,218)" index="99393" value="1"/>
  <variable name="X(17,73,6)" index="99797" value="1"/>
  <variable name="X(18,20,242)" index="100649" value="1"/>
  <variable name="X(18,74,84)" index="101107" value="1"/>
  <variable name="X(19,11,80)" index="101719" value="1"/>
  <variable name="X(19,75,346)" index="102601" value="1"/>
  <variable name="X(20,9,242)" index="103113" value="1"/>
  <variable name="X(20,17,253)" index="103740" value="1"/>
  <variable name="X(20,18,84)" index="104187" value="1"/>
  <variable name="X(20,19,80)" index="104799" value="1"/>
  <variable name="X(20,21,157)" index="105492" value="1"/>
  <variable name="X(20,22,158)" index="106109" value="1"/>
  <variable name="X(20,76,7)" index="106574" value="1"/>
  <variable name="X(21,20,264)" index="107447" value="1"/>
  <variable name="X(21,77,157)" index="107956" value="1"/>
  <variable name="X(22,20,267)" index="108682" value="1"/>
  <variable name="X(22,78,158)" index="109189" value="1"/>
  <variable name="X(23,33,270)" index="109917" value="1"/>
  <variable name="X(23,79,37)" index="110300" value="1"/>
  <variable name="X(24,33,285)" index="111164" value="1"/>
  <variable name="X(24,80,160)" index="111655" value="1"/>
  <variable name="X(25,51,302)" index="112413" value="1"/>
  <variable name="X(25,81,122)" index="112849" value="1"/>
  <variable name="X(26,12,150)" index="113493" value="1"/>
  <variable name="X(26,13,137)" index="114096" value="1"/>
  <variable name="X(26,82,64)" index="114639" value="1"/>
  <variable name="X(27,26,306)" index="115497" value="1"/>
  <variable name="X(28,84,163)" index="115970" value="1"/>
  <variable name="X(29,85,164)" index="116587" value="1"/>
  <variable name="X(30,13,208)" index="117247" value="1"/>
  <variable name="X(30,15,117)" index="117772" value="1"/>
  <variable name="X(30,16,153)" index="118424" value="1"/>
  <variable name="X(30,28,163)" index="119050" value="1"/>
  <variable name="X(30,29,164)" index="119667" value="1"/>
  <variable name="X(30,31,310)" index="120429" value="1"/>
  <variable name="X(30,86,8)" index="120743" value="1"/>
  <variable name="X(31,1,14)" index="121365" value="1"/>
  <variable name="X(31,3,1)" index="121968" value="1"/>
  <variable name="X(31,13,2)" index="122585" value="1"/>
  <variable name="X(31,14,5)" index="123204" value="1"/>
  <variable name="X(31,30,8)" index="123823" value="1"/>
  <variable name="X(31,33,10)" index="124441" value="1"/>
  <variable name="X(31,48,71)" index="125118" value="1"/>
  <variable name="X(31,52,13)" index="125676" value="1"/>
  <variable name="X(31,87,9)" index="126288" value="1"/>
  <variable name="X(32,14,382)" index="127277" value="1"/>
  <variable name="X(32,88,167)" index="127678" value="1"/>
  <variable name="X(33,4,142)" index="128269" value="1"/>
  <variable name="X(33,14,20)" index="128763" value="1"/>
  <variable name="X(33,23,37)" index="129396" value="1"/>
  <variable name="X(33,24,160)" index="130135" value="1"/>
  <variable name="X(33,31,44)" index="130635" value="1"/>
  <variable name="X(33,34,11)" index="131218" value="1"/>
  <variable name="X(33,35,69)" index="131892" value="1"/>
  <variable name="X(33,36,182)" index="132621" value="1"/>
  <variable name="X(33,47,179)" index="133234" value="1"/>
  <variable name="X(33,51,45)" index="133716" value="1"/>
  <variable name="X(33,52,28)" index="134315" value="1"/>
  <variable name="X(33,89,10)" index="134913" value="1"/>
  <variable name="X(34,33,431)" index="135950" value="1"/>
  <variable name="X(34,52,446)" index="136581" value="1"/>
  <variable name="X(34,90,11)" index="136762" value="1"/>
  <variable name="X(35,33,448)" index="137815" value="1"/>
  <variable name="X(35,55,430)" index="138413" value="1"/>
  <variable name="X(35,91,69)" index="138668" value="1"/>
  <variable name="X(36,33,459)" index="139674" value="1"/>
  <variable name="X(36,50,182)" index="140013" value="1"/>
  <variable name="X(36,92,361)" index="140808" value="1"/>
  <variable name="X(37,17,474)" index="141537" value="1"/>
  <variable name="X(37,93,171)" index="141850" value="1"/>
  <variable name="X(38,45,484)" index="142779" value="1"/>
  <variable name="X(38,94,363)" index="143274" value="1"/>
  <variable name="X(39,17,486)" index="144013" value="1"/>
  <variable name="X(39,95,172)" index="144315" value="1"/>
  <variable name="X(40,9,492)" index="145251" value="1"/>
  <variable name="X(40,51,490)" index="145865" value="1"/>
  <variable name="X(40,96,173)" index="146164" value="1"/>
  <variable name="X(41,7,113)" index="146720" value="1"/>
  <variable name="X(41,9,101)" index="147324" value="1"/>
  <variable name="X(41,97,93)" index="147932" value="1"/>
  <variable name="X(42,9,3)" index="148458" value="1"/>
  <variable name="X(42,13,514)" index="149585" value="1"/>
  <variable name="X(42,56,187)" index="149874" value="1"/>
  <variable name="X(42,98,70)" index="150373" value="1"/>
  <variable name="X(43,45,519)" index="151438" value="1"/>
  <variable name="X(43,99,368)" index="151903" value="1"/>
  <variable name="X(44,45,523)" index="152674" value="1"/>
  <variable name="X(44,100,176)" index="152943" value="1"/>
  <variable name="X(45,13,484)" index="153867" value="1"/>
  <variable name="X(45,17,6)" index="154005" value="1"/>
  <variable name="X(45,38,363)" index="154978" value="1"/>
  <variable name="X(45,43,368)" index="155599" value="1"/>
  <variable name="X(45,44,176)" index="156023" value="1"/>
  <variable name="X(45,46,178)" index="156641" value="1"/>
  <variable name="X(45,101,95)" index="157174" value="1"/>
  <variable name="X(46,45,548)" index="158243" value="1"/>
  <variable name="X(46,102,178)" index="158489" value="1"/>
  <variable name="X(47,103,179)" index="159106" value="1"/>
  <variable name="X(48,31,552)" index="160095" value="1"/>
  <variable name="X(48,104,71)" index="160230" value="1"/>
  <variable name="X(49,105,181)" index="160956" value="1"/>
  <variable name="X(50,36,568)" index="161959" value="1"/>
  <variable name="X(50,106,182)" index="162189" value="1"/>
  <variable name="X(51,5,2)" index="162625" value="1"/>
  <variable name="X(51,6,17)" index="163256" value="1"/>
  <variable name="X(51,7,57)" index="163912" value="1"/>
  <variable name="X(51,9,46)" index="164517" value="1"/>
  <variable name="X(51,13,14)" index="165101" value="1"/>
  <variable name="X(51,17,21)" index="165724" value="1"/>
  <variable name="X(51,25,122)" index="166441" value="1"/>
  <variable name="X(51,33,20)" index="166955" value="1"/>
  <variable name="X(51,40,173)" index="167724" value="1"/>
  <variable name="X(51,55,74)" index="168241" value="1"/>
  <variable name="X(51,107,12)" index="168795" value="1"/>
  <variable name="X(52,16,404)" index="169803" value="1"/>
  <variable name="X(52,31,203)" index="170218" value="1"/>
  <variable name="X(52,33,205)" index="170836" value="1"/>
  <variable name="X(52,34,215)" index="171462" value="1"/>
  <variable name="X(52,108,13)" index="171876" value="1"/>
  <variable name="X(53,13,594)" index="173073" value="1"/>
  <variable name="X(53,109,99)" index="173194" value="1"/>
  <variable name="X(54,14,595)" index="174306" value="1"/>
  <variable name="X(54,110,379)" index="174706" value="1"/>
  <variable name="X(55,26,599)" index="175542" value="1"/>
  <variable name="X(55,35,605)" index="176164" value="1"/>
  <variable name="X(55,51,601)" index="176776" value="1"/>
  <variable name="X(55,111,74)" index="176865" value="1"/>
  <variable name="X(56,112,187)" index="177594" value="1"/>
 </variables>
</CPLEXSolution>
